NAME : pairopt.-195840.tour
COMMENT : Length = -195840
COMMENT : Found by LKH-3 [Keld Helsgaun] Wed May 14 16:48:37 2025
TYPE : TOUR
DIMENSION : 23
TOUR_SECTION
1
2
17
9
15
7
8
13
14
16
18
23
3
19
21
11
20
12
6
5
4
10
22
-1
EOF
